tsp_instances/TSP50/instance46.tsp
NODE_COORD_SECTION
0 69 38
1 191 80
2 87 43
3 113 72
4 107 134
5 153 146
6 39 163
7 188 56
8 57 196
9 160 54
10 106 17
11 2 196
12 4 82
13 46 196
14 84 87
15 47 117
16 35 118
17 54 75
18 76 154
19 170 172
20 95 133
21 156 141
22 95 49
23 66 14
24 99 76
25 150 95
26 64 20
27 122 50
28 186 96
29 78 127
30 35 196
31 199 184
32 62 26
33 3 164
34 46 72
35 9 159
36 157 103
37 6 187
38 99 87
39 46 160
40 6 193
41 134 196
42 181 136
43 62 68
44 98 61
45 192 40
46 95 145
47 123 87
48 71 158
49 186 155
