tsp_instances/TSP50/instance46.opt.tour
TOUR_SECTION
1
3
23
45
25
4
48
39
15
44
18
35
13
17
16
30
21
5
47
19
49
40
7
36
34
38
12
41
31
14
9
42
20
32
50
43
22
6
37
26
29
2
8
46
10
28
11
24
27
33
-1